robust/generate/spp_dkp_Lefebvre_et_al_2026/src/shortest_path_2_1.kp
43
58

[3.34 17.66]

[58 35]
